\ Model coloration
\ LP format - for model browsing. Use MPS format to capture full model detail.
Minimize
  x,0,0, + x,0,1, + x,0,2, + x,0,3, + x,0,4, + x,1,0, + x,1,1, + x,1,2,
   + x,1,3, + x,1,4, + x,2,0, + x,2,1, + x,2,2, + x,2,3, + x,2,4, + x,3,0,
   + x,3,1, + x,3,2, + x,3,3, + x,3,4, + x,4,0, + x,4,1, + x,4,2, + x,4,3,
   + x,4,4,
Subject To
 C_0/mutuelle/L_0: y,0,0,0, + y,0,1,0, + y,0,2,0, = 1
 C_1/mutuelle/L_1: y,1,0,0, = 1
 C_2/mutuelle/L_1: y,1,2,1, = 1
 C_3/mutuelle/L_1: y,1,4,2, = 1
 C_4/mutuelle/L_2: y,2,0,0, + y,2,1,0, + y,2,2,0, = 1
 C_5/mutuelle/L_3: y,3,0,0, + y,3,1,0, + y,3,2,0, = 1
 C_6/mutuelle/L_3: y,3,2,1, + y,3,3,1, + y,3,4,1, = 1
 C_7/mutuelle/L_4: y,4,0,0, + y,4,1,0, + y,4,2,0, = 1
 C_8/mutuelle/L_4: y,4,2,1, + y,4,3,1, + y,4,4,1, = 1
 C_9/Q10/L_0: - x,0,0, - x,0,1, - x,0,2, + 3 y,0,0,0, <= 0
 C_10/Q10/C_0: - x,0,0, + z,0,0,0, <= 0
 C_11/Q10/L_0: - x,0,1, - x,0,2, - x,0,3, + 3 y,0,1,0, <= 0
 C_12/Q10/C_1: - x,0,1, + z,0,1,0, <= 0
 C_13/Q10/L_0: - x,0,2, - x,0,3, - x,0,4, + 3 y,0,2,0, <= 0
 C_14/Q10/C_2: - x,0,2, - x,1,2, - x,2,2, + 3 z,0,2,0, <= 0
 C_15/Q10/C_3: - x,0,3, + z,0,3,0, <= 0
 C_16/Q10/C_4: - x,0,4, + z,0,4,0, <= 0
 C_17/Q10/L_1: - x,1,0, + y,1,0,0, <= 0
 C_18/ordre/C_0: z,1,0,0, + z,2,0,1, <= 1
 C_19/Q10/C_0: - x,1,0, + z,1,0,0, <= 0
 C_20/ordre/C_1: z,1,1,0, + z,2,1,1, <= 1
 C_21/Q10/C_1: - x,1,1, + z,1,1,0, <= 0
 C_22/Q10/L_1: - x,1,2, + y,1,2,1, <= 0
 C_23/Q10/C_2: - x,1,2, - x,2,2, - x,3,2, + 3 z,1,2,0, <= 0
 C_24/ordre/C_3: z,1,3,0, + z,2,3,1, <= 1
 C_25/Q10/C_3: - x,1,3, + z,1,3,0, <= 0
 C_26/Q10/L_1: - x,1,4, + y,1,4,2, <= 0
 C_27/ordre/C_4: z,1,4,0, + z,2,4,1, <= 1
 C_28/Q10/C_4: - x,1,4, + z,1,4,0, <= 0
 C_29/Q10/L_2: - x,2,0, - x,2,1, - x,2,2, + 3 y,2,0,0, <= 0
 C_30/ordre/C_0: 2 z,2,0,0, + z,2,0,1, + z,3,0,1, <= 2
 C_31/Q10/C_0: - x,2,0, + z,2,0,0, <= 0
 C_32/Q10/C_0: - x,2,0, + z,2,0,1, <= 0
 C_33/Q10/L_2: - x,2,1, - x,2,2, - x,2,3, + 3 y,2,1,0, <= 0
 C_34/Q10/C_1: - x,2,1, - x,3,1, + 2 z,2,1,1, <= 0
 C_35/Q10/L_2: - x,2,2, - x,2,3, - x,2,4, + 3 y,2,2,0, <= 0
 C_36/Q10/C_2: - x,2,2, - x,3,2, - x,4,2, + 3 z,2,2,0, <= 0
 C_37/Q10/C_3: - x,2,3, - x,3,3, + 2 z,2,3,1, <= 0
 C_38/ordre/C_4: 2 z,2,4,0, + z,2,4,1, + z,3,4,1, <= 2
 C_39/Q10/C_4: - x,2,4, + z,2,4,0, <= 0
 C_40/Q10/C_4: - x,2,4, + z,2,4,1, <= 0
 C_41/Q10/L_3: - x,3,0, + y,3,0,0, <= 0
 C_42/Q10/C_0: - x,3,0, + z,3,0,1, <= 0
 C_43/ordre/L_3: y,3,1,0, + y,3,2,1, <= 1
 C_44/Q10/L_3: - x,3,1, + y,3,1,0, <= 0
 C_45/Q10/C_1: - x,3,1, - x,4,1, + 2 z,3,1,1, <= 0
 C_46/ordre/L_3: 2 y,3,2,0, + y,3,2,1, + y,3,3,1, <= 2
 C_47/Q10/L_3: - x,3,2, + y,3,2,0, <= 0
 C_48/Q10/L_3: - x,3,2, + y,3,2,1, <= 0
 C_49/Q10/L_3: - x,3,3, + y,3,3,1, <= 0
 C_50/Q10/C_3: - x,3,3, - x,4,3, + 2 z,3,3,1, <= 0
 C_51/Q10/L_3: - x,3,4, + y,3,4,1, <= 0
 C_52/Q10/C_4: - x,3,4, + z,3,4,1, <= 0
 C_53/Q10/L_4: - x,4,0, + y,4,0,0, <= 0
 C_54/Q10/C_0: - x,4,0, + z,4,0,1, <= 0
 C_55/ordre/L_4: y,4,1,0, + y,4,2,1, <= 1
 C_56/Q10/L_4: - x,4,1, + y,4,1,0, <= 0
 C_57/ordre/L_4: 2 y,4,2,0, + y,4,2,1, + y,4,3,1, <= 2
 C_58/Q10/L_4: - x,4,2, + y,4,2,0, <= 0
 C_59/Q10/L_4: - x,4,2, + y,4,2,1, <= 0
 C_60/Q10/L_4: - x,4,3, + y,4,3,1, <= 0
 C_61/Q10/L_4: - x,4,4, + y,4,4,1, <= 0
 C_62/Q10/C_4: - x,4,4, + z,4,4,1, <= 0
 C_63/mutuelle/C_0: z,0,0,0, + z,1,0,0, + z,2,0,0, = 1
 C_64/mutuelle/C_0: z,2,0,1, + z,3,0,1, + z,4,0,1, = 1
 C_65/mutuelle/C_1: z,0,1,0, + z,1,1,0, = 1
 C_66/mutuelle/C_1: z,2,1,1, + z,3,1,1, = 1
 C_67/mutuelle/C_2: z,0,2,0, + z,1,2,0, + z,2,2,0, = 1
 C_68/mutuelle/C_3: z,0,3,0, + z,1,3,0, = 1
 C_69/mutuelle/C_3: z,2,3,1, + z,3,3,1, = 1
 C_70/mutuelle/C_4: z,0,4,0, + z,1,4,0, + z,2,4,0, = 1
 C_71/mutuelle/C_4: z,2,4,1, + z,3,4,1, + z,4,4,1, = 1
Bounds
Binaries
 x,0,0, x,0,1, x,0,2, x,0,3, x,0,4, x,1,0, x,1,1, x,1,2, x,1,3, x,1,4,
 x,2,0, x,2,1, x,2,2, x,2,3, x,2,4, x,3,0, x,3,1, x,3,2, x,3,3, x,3,4,
 x,4,0, x,4,1, x,4,2, x,4,3, x,4,4, y,0,0,0, y,0,1,0, y,0,2,0, y,1,0,0,
 y,1,2,1, y,1,4,2, y,2,0,0, y,2,1,0, y,2,2,0, y,3,0,0, y,3,1,0, y,3,2,0,
 y,3,2,1, y,3,3,1, y,3,4,1, y,4,0,0, y,4,1,0, y,4,2,0, y,4,2,1, y,4,3,1,
 y,4,4,1, z,0,0,0, z,1,0,0, z,2,0,0, z,2,0,1, z,3,0,1, z,4,0,1, z,0,1,0,
 z,1,1,0, z,2,1,1, z,3,1,1, z,0,2,0, z,1,2,0, z,2,2,0, z,0,3,0, z,1,3,0,
 z,2,3,1, z,3,3,1, z,0,4,0, z,1,4,0, z,2,4,0, z,2,4,1, z,3,4,1, z,4,4,1,
End
